Alps/examples/Knap/data/hard2/input150_9.mps
NAME          input150
ROWS
 L  R0001
 N  R0002
COLUMNS
    INT1      'MARKER'                 'INTORG'
    C0001     R0001     553
    C0001     R0002     -563
    C0002     R0001     1862
    C0002     R0002     -1872
    C0003     R0001     569
    C0003     R0002     -579
    C0004     R0001     715
    C0004     R0002     -725
    C0005     R0001     1801
    C0005     R0002     -1811
    C0006     R0001     1600
    C0006     R0002     -1610
    C0007     R0001     442
    C0007     R0002     -452
    C0008     R0001     1978
    C0008     R0002     -1988
    C0009     R0001     1674
    C0009     R0002     -1684
    C0010     R0001     1213
    C0010     R0002     -1223
    C0011     R0001     1725
    C0011     R0002     -1735
    C0012     R0001     551
    C0012     R0002     -561
    C0013     R0001     870
    C0013     R0002     -880
    C0014     R0001     305
    C0014     R0002     -315
    C0015     R0001     571
    C0015     R0002     -581
    C0016     R0001     1087
    C0016     R0002     -1097
    C0017     R0001     364
    C0017     R0002     -374
    C0018     R0001     979
    C0018     R0002     -989
    C0019     R0001     1450
    C0019     R0002     -1460
    C0020     R0001     764
    C0020     R0002     -774
    C0021     R0001     588
    C0021     R0002     -598
    C0022     R0001     37
    C0022     R0002     -47
    C0023     R0001     1600
    C0023     R0002     -1610
    C0024     R0001     399
    C0024     R0002     -409
    C0025     R0001     131
    C0025     R0002     -141
    C0026     R0001     874
    C0026     R0002     -884
    C0027     R0001     267
    C0027     R0002     -277
    C0028     R0001     1182
    C0028     R0002     -1192
    C0029     R0001     530
    C0029     R0002     -540
    C0030     R0001     1821
    C0030     R0002     -1831
    C0031     R0001     358
    C0031     R0002     -368
    C0032     R0001     1082
    C0032     R0002     -1092
    C0033     R0001     1684
    C0033     R0002     -1694
    C0034     R0001     926
    C0034     R0002     -936
    C0035     R0001     1796
    C0035     R0002     -1806
    C0036     R0001     1486
    C0036     R0002     -1496
    C0037     R0001     527
    C0037     R0002     -537
    C0038     R0001     239
    C0038     R0002     -249
    C0039     R0001     1464
    C0039     R0002     -1474
    C0040     R0001     201
    C0040     R0002     -211
    C0041     R0001     1451
    C0041     R0002     -1461
    C0042     R0001     1189
    C0042     R0002     -1199
    C0043     R0001     752
    C0043     R0002     -762
    C0044     R0001     322
    C0044     R0002     -332
    C0045     R0001     1494
    C0045     R0002     -1504
    C0046     R0001     1322
    C0046     R0002     -1332
    C0047     R0001     1409
    C0047     R0002     -1419
    C0048     R0001     1857
    C0048     R0002     -1867
    C0049     R0001     302
    C0049     R0002     -312
    C0050     R0001     859
    C0050     R0002     -869
    C0051     R0001     621
    C0051     R0002     -631
    C0052     R0001     889
    C0052     R0002     -899
    C0053     R0001     896
    C0053     R0002     -906
    C0054     R0001     222
    C0054     R0002     -232
    C0055     R0001     1288
    C0055     R0002     -1298
    C0056     R0001     1027
    C0056     R0002     -1037
    C0057     R0001     1096
    C0057     R0002     -1106
    C0058     R0001     1554
    C0058     R0002     -1564
    C0059     R0001     209
    C0059     R0002     -219
    C0060     R0001     1625
    C0060     R0002     -1635
    C0061     R0001     1376
    C0061     R0002     -1386
    C0062     R0001     566
    C0062     R0002     -576
    C0063     R0001     707
    C0063     R0002     -717
    C0064     R0001     1060
    C0064     R0002     -1070
    C0065     R0001     1492
    C0065     R0002     -1502
    C0066     R0001     504
    C0066     R0002     -514
    C0067     R0001     546
    C0067     R0002     -556
    C0068     R0001     19
    C0068     R0002     -29
    C0069     R0001     743
    C0069     R0002     -753
    C0070     R0001     10
    C0070     R0002     -20
    C0071     R0001     220
    C0071     R0002     -230
    C0072     R0001     194
    C0072     R0002     -204
    C0073     R0001     1199
    C0073     R0002     -1209
    C0074     R0001     971
    C0074     R0002     -981
    C0075     R0001     515
    C0075     R0002     -525
    C0076     R0001     693
    C0076     R0002     -703
    C0077     R0001     294
    C0077     R0002     -304
    C0078     R0001     1923
    C0078     R0002     -1933
    C0079     R0001     551
    C0079     R0002     -561
    C0080     R0001     596
    C0080     R0002     -606
    C0081     R0001     783
    C0081     R0002     -793
    C0082     R0001     1172
    C0082     R0002     -1182
    C0083     R0001     1484
    C0083     R0002     -1494
    C0084     R0001     1678
    C0084     R0002     -1688
    C0085     R0001     1394
    C0085     R0002     -1404
    C0086     R0001     772
    C0086     R0002     -782
    C0087     R0001     705
    C0087     R0002     -715
    C0088     R0001     490
    C0088     R0002     -500
    C0089     R0001     327
    C0089     R0002     -337
    C0090     R0001     914
    C0090     R0002     -924
    C0091     R0001     116
    C0091     R0002     -126
    C0092     R0001     1702
    C0092     R0002     -1712
    C0093     R0001     1479
    C0093     R0002     -1489
    C0094     R0001     822
    C0094     R0002     -832
    C0095     R0001     762
    C0095     R0002     -772
    C0096     R0001     972
    C0096     R0002     -982
    C0097     R0001     1326
    C0097     R0002     -1336
    C0098     R0001     1308
    C0098     R0002     -1318
    C0099     R0001     990
    C0099     R0002     -1000
    C0100     R0001     69
    C0100     R0002     -79
    C0101     R0001     1317
    C0101     R0002     -1327
    C0102     R0001     1209
    C0102     R0002     -1219
    C0103     R0001     263
    C0103     R0002     -273
    C0104     R0001     517
    C0104     R0002     -527
    C0105     R0001     181
    C0105     R0002     -191
    C0106     R0001     778
    C0106     R0002     -788
    C0107     R0001     1210
    C0107     R0002     -1220
    C0108     R0001     475
    C0108     R0002     -485
    C0109     R0001     702
    C0109     R0002     -712
    C0110     R0001     1760
    C0110     R0002     -1770
    C0111     R0001     1070
    C0111     R0002     -1080
    C0112     R0001     1484
    C0112     R0002     -1494
    C0113     R0001     933
    C0113     R0002     -943
    C0114     R0001     555
    C0114     R0002     -565
    C0115     R0001     1163
    C0115     R0002     -1173
    C0116     R0001     327
    C0116     R0002     -337
    C0117     R0001     1327
    C0117     R0002     -1337
    C0118     R0001     1868
    C0118     R0002     -1878
    C0119     R0001     816
    C0119     R0002     -826
    C0120     R0001     1653
    C0120     R0002     -1663
    C0121     R0001     782
    C0121     R0002     -792
    C0122     R0001     931
    C0122     R0002     -941
    C0123     R0001     1355
    C0123     R0002     -1365
    C0124     R0001     262
    C0124     R0002     -272
    C0125     R0001     1753
    C0125     R0002     -1763
    C0126     R0001     118
    C0126     R0002     -128
    C0127     R0001     1233
    C0127     R0002     -1243
    C0128     R0001     1080
    C0128     R0002     -1090
    C0129     R0001     1425
    C0129     R0002     -1435
    C0130     R0001     224
    C0130     R0002     -234
    C0131     R0001     1149
    C0131     R0002     -1159
    C0132     R0001     743
    C0132     R0002     -753
    C0133     R0001     1433
    C0133     R0002     -1443
    C0134     R0001     1411
    C0134     R0002     -1421
    C0135     R0001     1259
    C0135     R0002     -1269
    C0136     R0001     1614
    C0136     R0002     -1624
    C0137     R0001     189
    C0137     R0002     -199
    C0138     R0001     470
    C0138     R0002     -480
    C0139     R0001     89
    C0139     R0002     -99
    C0140     R0001     891
    C0140     R0002     -901
    C0141     R0001     230
    C0141     R0002     -240
    C0142     R0001     1159
    C0142     R0002     -1169
    C0143     R0001     376
    C0143     R0002     -386
    C0144     R0001     1162
    C0144     R0002     -1172
    C0145     R0001     1713
    C0145     R0002     -1723
    C0146     R0001     1538
    C0146     R0002     -1548
    C0147     R0001     1488
    C0147     R0002     -1498
    C0148     R0001     1040
    C0148     R0002     -1050
    C0149     R0001     1407
    C0149     R0002     -1417
    C0150     R0001     305
    C0150     R0002     -315
    INT1END   'MARKER'                 'INTEND'
RHS
    B         R0001     70265
BOUNDS
 UP BOUND     C0001     1
 UP BOUND     C0002     1
 UP BOUND     C0003     1
 UP BOUND     C0004     1
 UP BOUND     C0005     1
 UP BOUND     C0006     1
 UP BOUND     C0007     1
 UP BOUND     C0008     1
 UP BOUND     C0009     1
 UP BOUND     C0010     1
 UP BOUND     C0011     1
 UP BOUND     C0012     1
 UP BOUND     C0013     1
 UP BOUND     C0014     1
 UP BOUND     C0015     1
 UP BOUND     C0016     1
 UP BOUND     C0017     1
 UP BOUND     C0018     1
 UP BOUND     C0019     1
 UP BOUND     C0020     1
 UP BOUND     C0021     1
 UP BOUND     C0022     1
 UP BOUND     C0023     1
 UP BOUND     C0024     1
 UP BOUND     C0025     1
 UP BOUND     C0026     1
 UP BOUND     C0027     1
 UP BOUND     C0028     1
 UP BOUND     C0029     1
 UP BOUND     C0030     1
 UP BOUND     C0031     1
 UP BOUND     C0032     1
 UP BOUND     C0033     1
 UP BOUND     C0034     1
 UP BOUND     C0035     1
 UP BOUND     C0036     1
 UP BOUND     C0037     1
 UP BOUND     C0038     1
 UP BOUND     C0039     1
 UP BOUND     C0040     1
 UP BOUND     C0041     1
 UP BOUND     C0042     1
 UP BOUND     C0043     1
 UP BOUND     C0044     1
 UP BOUND     C0045     1
 UP BOUND     C0046     1
 UP BOUND     C0047     1
 UP BOUND     C0048     1
 UP BOUND     C0049     1
 UP BOUND     C0050     1
 UP BOUND     C0051     1
 UP BOUND     C0052     1
 UP BOUND     C0053     1
 UP BOUND     C0054     1
 UP BOUND     C0055     1
 UP BOUND     C0056     1
 UP BOUND     C0057     1
 UP BOUND     C0058     1
 UP BOUND     C0059     1
 UP BOUND     C0060     1
 UP BOUND     C0061     1
 UP BOUND     C0062     1
 UP BOUND     C0063     1
 UP BOUND     C0064     1
 UP BOUND     C0065     1
 UP BOUND     C0066     1
 UP BOUND     C0067     1
 UP BOUND     C0068     1
 UP BOUND     C0069     1
 UP BOUND     C0070     1
 UP BOUND     C0071     1
 UP BOUND     C0072     1
 UP BOUND     C0073     1
 UP BOUND     C0074     1
 UP BOUND     C0075     1
 UP BOUND     C0076     1
 UP BOUND     C0077     1
 UP BOUND     C0078     1
 UP BOUND     C0079     1
 UP BOUND     C0080     1
 UP BOUND     C0081     1
 UP BOUND     C0082     1
 UP BOUND     C0083     1
 UP BOUND     C0084     1
 UP BOUND     C0085     1
 UP BOUND     C0086     1
 UP BOUND     C0087     1
 UP BOUND     C0088     1
 UP BOUND     C0089     1
 UP BOUND     C0090     1
 UP BOUND     C0091     1
 UP BOUND     C0092     1
 UP BOUND     C0093     1
 UP BOUND     C0094     1
 UP BOUND     C0095     1
 UP BOUND     C0096     1
 UP BOUND     C0097     1
 UP BOUND     C0098     1
 UP BOUND     C0099     1
 UP BOUND     C0100     1
 UP BOUND     C0101     1
 UP BOUND     C0102     1
 UP BOUND     C0103     1
 UP BOUND     C0104     1
 UP BOUND     C0105     1
 UP BOUND     C0106     1
 UP BOUND     C0107     1
 UP BOUND     C0108     1
 UP BOUND     C0109     1
 UP BOUND     C0110     1
 UP BOUND     C0111     1
 UP BOUND     C0112     1
 UP BOUND     C0113     1
 UP BOUND     C0114     1
 UP BOUND     C0115     1
 UP BOUND     C0116     1
 UP BOUND     C0117     1
 UP BOUND     C0118     1
 UP BOUND     C0119     1
 UP BOUND     C0120     1
 UP BOUND     C0121     1
 UP BOUND     C0122     1
 UP BOUND     C0123     1
 UP BOUND     C0124     1
 UP BOUND     C0125     1
 UP BOUND     C0126     1
 UP BOUND     C0127     1
 UP BOUND     C0128     1
 UP BOUND     C0129     1
 UP BOUND     C0130     1
 UP BOUND     C0131     1
 UP BOUND     C0132     1
 UP BOUND     C0133     1
 UP BOUND     C0134     1
 UP BOUND     C0135     1
 UP BOUND     C0136     1
 UP BOUND     C0137     1
 UP BOUND     C0138     1
 UP BOUND     C0139     1
 UP BOUND     C0140     1
 UP BOUND     C0141     1
 UP BOUND     C0142     1
 UP BOUND     C0143     1
 UP BOUND     C0144     1
 UP BOUND     C0145     1
 UP BOUND     C0146     1
 UP BOUND     C0147     1
 UP BOUND     C0148     1
 UP BOUND     C0149     1
 UP BOUND     C0150     1
ENDATA
