Alps/examples/Knap/data/hard2/input150_9.txt
ITEM 553 563
ITEM 1862 1872
ITEM 569 579
ITEM 715 725
ITEM 1801 1811
ITEM 1600 1610
ITEM 442 452
ITEM 1978 1988
ITEM 1674 1684
ITEM 1213 1223
ITEM 1725 1735
ITEM 551 561
ITEM 870 880
ITEM 305 315
ITEM 571 581
ITEM 1087 1097
ITEM 364 374
ITEM 979 989
ITEM 1450 1460
ITEM 764 774
ITEM 588 598
ITEM 37 47
ITEM 1600 1610
ITEM 399 409
ITEM 131 141
ITEM 874 884
ITEM 267 277
ITEM 1182 1192
ITEM 530 540
ITEM 1821 1831
ITEM 358 368
ITEM 1082 1092
ITEM 1684 1694
ITEM 926 936
ITEM 1796 1806
ITEM 1486 1496
ITEM 527 537
ITEM 239 249
ITEM 1464 1474
ITEM 201 211
ITEM 1451 1461
ITEM 1189 1199
ITEM 752 762
ITEM 322 332
ITEM 1494 1504
ITEM 1322 1332
ITEM 1409 1419
ITEM 1857 1867
ITEM 302 312
ITEM 859 869
ITEM 621 631
ITEM 889 899
ITEM 896 906
ITEM 222 232
ITEM 1288 1298
ITEM 1027 1037
ITEM 1096 1106
ITEM 1554 1564
ITEM 209 219
ITEM 1625 1635
ITEM 1376 1386
ITEM 566 576
ITEM 707 717
ITEM 1060 1070
ITEM 1492 1502
ITEM 504 514
ITEM 546 556
ITEM 19 29
ITEM 743 753
ITEM 10 20
ITEM 220 230
ITEM 194 204
ITEM 1199 1209
ITEM 971 981
ITEM 515 525
ITEM 693 703
ITEM 294 304
ITEM 1923 1933
ITEM 551 561
ITEM 596 606
ITEM 783 793
ITEM 1172 1182
ITEM 1484 1494
ITEM 1678 1688
ITEM 1394 1404
ITEM 772 782
ITEM 705 715
ITEM 490 500
ITEM 327 337
ITEM 914 924
ITEM 116 126
ITEM 1702 1712
ITEM 1479 1489
ITEM 822 832
ITEM 762 772
ITEM 972 982
ITEM 1326 1336
ITEM 1308 1318
ITEM 990 1000
ITEM 69 79
ITEM 1317 1327
ITEM 1209 1219
ITEM 263 273
ITEM 517 527
ITEM 181 191
ITEM 778 788
ITEM 1210 1220
ITEM 475 485
ITEM 702 712
ITEM 1760 1770
ITEM 1070 1080
ITEM 1484 1494
ITEM 933 943
ITEM 555 565
ITEM 1163 1173
ITEM 327 337
ITEM 1327 1337
ITEM 1868 1878
ITEM 816 826
ITEM 1653 1663
ITEM 782 792
ITEM 931 941
ITEM 1355 1365
ITEM 262 272
ITEM 1753 1763
ITEM 118 128
ITEM 1233 1243
ITEM 1080 1090
ITEM 1425 1435
ITEM 224 234
ITEM 1149 1159
ITEM 743 753
ITEM 1433 1443
ITEM 1411 1421
ITEM 1259 1269
ITEM 1614 1624
ITEM 189 199
ITEM 470 480
ITEM 89 99
ITEM 891 901
ITEM 230 240
ITEM 1159 1169
ITEM 376 386
ITEM 1162 1172
ITEM 1713 1723
ITEM 1538 1548
ITEM 1488 1498
ITEM 1040 1050
ITEM 1407 1417
ITEM 305 315
CAPACITY 70265
